============================[ Problem Statistics ]=============================|                                                                             ||  Number of variables:          4242                                         ||  Number of clauses:           10165                                         ||  Parse time:                   0.56 s                                       ||                                                                             |============================[ Search Statistics ]==============================| Conflicts |          ORIGINAL         |          LEARNT          | Progress ||           |    Vars  Clauses Literals |    Limit  Clauses Lit/Cl |          |===============================================================================|       100 |    1591     6370   882071 |     2335      100     53 | 62.501 % ||       250 |    1591     6370   882071 |     2569      250     75 | 62.495 % |===============================================================================restarts              : 3conflicts             : 307            (363 /sec)decisions             : 573            (0.00 % random) (677 /sec)propagations          : 11867          (14027 /sec)conflict literals     : 24331          (94.72 % deleted)CPU time              : 0.846 sSATISFIABLE